
Gurobi 11.0.0 (linux64) logging started Wed Nov 29 20:35:04 2023

Set parameter LogFile to value "wlp03-p-Location-Of-Facilities-GUROBI.txt"
Gurobi Optimizer version 11.0.0 build v11.0.0rc2 (linux64 - "Ubuntu 22.04.3 LTS")

CPU model: AMD Ryzen 7 5800H with Radeon Graphics, instruction set [SSE2|AVX|AVX2]
Thread count: 8 physical cores, 16 logical processors, using up to 16 threads

Optimize a model with 1412 rows, 405200 columns and 810000 nonzeros
Model fingerprint: 0x99322a86
Variable types: 404800 continuous, 400 integer (0 binary)
Coefficient statistics:
  Matrix range     [1e+00, 1e+02]
  Objective range  [1e+00, 1e+03]
  Bounds range     [1e+00, 1e+00]
  RHS range        [1e+00, 1e+00]
Found heuristic solution: objective 302550.00000
Presolve time: 0.60s
Presolved: 1412 rows, 405200 columns, 810000 nonzeros
Variable types: 404800 continuous, 400 integer (400 binary)
Deterministic concurrent LP optimizer: primal simplex, dual simplex, and barrier
Showing barrier log only...

Root barrier log...

Ordering time: 0.02s

Barrier statistics:
 AA' NZ     : 4.048e+05
 Factor NZ  : 5.732e+05 (roughly 170 MB of memory)
 Factor Ops : 2.756e+08 (less than 1 second per iteration)
 Threads    : 6

                  Objective                Residual
Iter       Primal          Dual         Primal    Dual     Compl     Time
   0   2.48153268e+06 -4.38953796e+05  1.46e+02 0.00e+00  8.88e+00     1s
   1   3.40081226e+05 -3.99986947e+04  1.30e+01 5.68e-14  9.24e-01     1s
   2   1.73102677e+05  5.33545324e+04  8.03e-01 1.14e+00  1.65e-01     1s
   3   1.57347553e+05  8.85069625e+04  1.80e-01 6.48e-01  8.83e-02     1s
   4   1.47086447e+05  9.94687652e+04  7.30e-02 4.79e-01  6.05e-02     2s
   5   1.44841256e+05  1.06952089e+05  6.67e-02 2.98e-01  4.78e-02     2s
   6   1.39841699e+05  1.07902008e+05  4.85e-02 1.08e-01  4.03e-02     2s
   7   1.33523854e+05  1.11077576e+05  2.99e-02 1.85e-01  2.83e-02     2s
   8   1.30281873e+05  1.11496246e+05  2.36e-02 1.53e-01  2.37e-02     2s
   9   1.26978315e+05  1.11845724e+05  1.82e-02 1.05e-01  1.91e-02     2s
  10   1.23980471e+05  1.12686159e+05  1.28e-02 1.02e-01  1.42e-02     2s
  11   1.17877856e+05  1.13586680e+05  3.13e-03 5.85e-02  5.47e-03     2s
  12   1.16259765e+05  1.14098021e+05  1.44e-03 3.14e-02  2.76e-03     2s
  13   1.15709299e+05  1.14385170e+05  9.31e-04 1.65e-02  1.68e-03     2s
  14   1.15233563e+05  1.14511815e+05  5.05e-04 8.46e-03  9.15e-04     2s
  15   1.14889266e+05  1.14581735e+05  2.04e-04 3.74e-03  3.91e-04     2s
  16   1.14731351e+05  1.14612074e+05  7.65e-05 1.64e-03  1.52e-04     2s
  17   1.14663473e+05  1.14621346e+05  2.26e-05 9.46e-04  5.46e-05     2s
  18   1.14640515e+05  1.14629115e+05  4.91e-06 3.50e-04  1.51e-05     2s
  19   1.14635049e+05  1.14632161e+05  9.00e-07 1.15e-04  3.89e-06     2s
  20   1.14633911e+05  1.14633506e+05  1.57e-07 1.13e-05  5.31e-07     2s
  21   1.14633688e+05  1.14633650e+05  2.13e-08 1.13e-07  4.70e-08     2s
  22   1.14633652e+05  1.14633652e+05  1.51e-12 1.78e-13  4.20e-13     2s

Barrier solved model in 22 iterations and 2.25 seconds (3.37 work units)
Optimal objective 1.14633652e+05

Concurrent spin time: 0.39s (can be avoided by choosing Method=3)

Solved with primal simplex

Root relaxation: objective 1.146337e+05, 63907 iterations, 1.97 seconds (1.48 work units)

    Nodes    |    Current Node    |     Objective Bounds      |     Work
 Expl Unexpl |  Obj  Depth IntInf | Incumbent    BestBd   Gap | It/Node Time

     0     0 114633.652    0   26 302550.000 114633.652  62.1%     -    2s
H    0     0                    124217.36045 114633.652  7.72%     -    2s
H    0     0                    121556.52157 114633.652  5.70%     -    3s
H    0     0                    120181.26441 114633.652  4.62%     -    3s
     0     0 114666.606    0   16 120181.264 114666.606  4.59%     -    4s
     0     0 114670.247    0   16 120181.264 114670.247  4.59%     -    6s
     0     0 114670.247    0   16 120181.264 114670.247  4.59%     -    6s
H    0     0                    119821.32710 114670.247  4.30%     -    6s
     0     0 114673.283    0   13 119821.327 114673.283  4.30%     -    7s
H    0     0                    119058.86446 114673.283  3.68%     -    8s
H    0     0                    118472.44242 114673.283  3.21%     -    8s
H    0     0                    118080.52751 114673.283  2.89%     -    8s
H    0     0                    117240.87810 114673.283  2.19%     -    8s
H    0     0                    117120.09760 114673.283  2.09%     -    8s
H    0     0                    116519.54527 114673.283  1.58%     -    8s
     0     0 114673.283    0   13 116519.545 114673.283  1.58%     -    8s
     0     0 114673.283    0   13 116519.545 114673.283  1.58%     -    8s
H    0     0                    116111.35918 114673.283  1.24%     -    9s
H    0     0                    116097.89484 114673.283  1.23%     -    9s
     0     0 114673.283    0   12 116097.895 114673.283  1.23%     -    9s
H    0     0                    115654.81468 114673.535  0.85%     -   10s
H    0     0                    114840.39227 114673.535  0.15%     -   10s
H    0     0                    114836.27416 114673.535  0.14%     -   10s
     0     0 114673.535    0   12 114836.274 114673.535  0.14%     -   10s
     0     0 114674.200    0   13 114836.274 114674.200  0.14%     -   11s
H    0     0                    114830.86052 114674.566  0.14%     -   11s
     0     0 114674.566    0   13 114830.861 114674.566  0.14%     -   11s
     0     0 114674.598    0   12 114830.861 114674.598  0.14%     -   12s
     0     0 114674.599    0   14 114830.861 114674.599  0.14%     -   12s
     0     0 114675.252    0   13 114830.861 114675.252  0.14%     -   13s
     0     0 114675.340    0   13 114830.861 114675.340  0.14%     -   14s
     0     0 114675.607    0   13 114830.861 114675.607  0.14%     -   14s
     0     0 114675.617    0   13 114830.861 114675.617  0.14%     -   15s
     0     0 114675.838    0   13 114830.861 114675.838  0.14%     -   16s
     0     0 114675.840    0   13 114830.861 114675.840  0.13%     -   16s
     0     0 114675.920    0   13 114830.861 114675.920  0.13%     -   17s
     0     0 114675.921    0   13 114830.861 114675.921  0.13%     -   17s
     0     2 114675.921    0   13 114830.861 114675.921  0.13%     -   19s
     7    16 114702.129    3   13 114830.861 114678.410  0.13%  38.0   20s
H   81    91                    114743.37338 114678.941  0.06%  28.8   24s
H   82    91                    114742.22768 114678.941  0.06%  28.5   24s
    90   124 114711.104   11    7 114742.228 114678.941  0.06%  28.8   26s
H  152   172                    114739.81630 114678.941  0.05%  25.9   29s
   172   233 114713.613   17    4 114739.816 114678.941  0.05%  24.3   32s
   241   297 114717.720   24    3 114739.816 114678.941  0.05%  21.8   36s
H  294   297                    114739.17175 114678.941  0.05%  20.5   36s
H  296   297                    114739.04618 114678.941  0.05%  20.4   36s
   324   364 114718.246   37    2 114739.046 114678.941  0.05%  19.8   42s
   438   459 114719.794   56    1 114739.046 114679.145  0.05%  19.1   47s
H  568   459                    114737.98282 114679.145  0.05%  18.8   47s
   576   559 114686.397   11    2 114737.983 114679.145  0.05%  18.8   56s
H  656   558                    114737.21817 114679.145  0.05%  18.5   56s
   697   559 114705.906   37   13 114737.218 114679.145  0.05%  18.4   63s
   699   560 114715.863   21   26 114737.218 114679.145  0.05%  18.3   67s
   702   562 114719.593   34   13 114737.218 114679.145  0.05%  18.2   70s
   709   567 114692.926   36   12 114737.218 114679.145  0.05%  18.1   76s
   713   570 114684.513   31   13 114737.218 114679.250  0.05%  18.0   80s
   716   572 114720.743   67   11 114737.218 114680.064  0.05%  17.9   85s
   721   575 114692.243   15   11 114737.218 114681.276  0.05%  17.8   90s
   730   588 114702.193   15   11 114737.218 114681.276  0.05%  58.5   96s
   753   601 114707.813   17   10 114737.218 114681.276  0.05%  58.6  100s
   787   623 114727.169   19    8 114737.218 114681.276  0.05%  58.6  105s
   857   671 114715.906   24    3 114737.218 114681.276  0.05%  58.5  110s
   922   731 114711.665   28    2 114737.218 114681.276  0.05%  58.0  115s
  1014   797 114713.322   33    2 114737.218 114681.276  0.05%  58.3  122s
  1087   827 114711.063   38    3 114737.218 114681.276  0.05%  58.2  127s
  1173   852 114711.549   45    2 114737.218 114681.276  0.05%  58.2  134s
  1253   877 114737.212   53    1 114737.218 114681.276  0.05%  58.4  140s
  1343   922 114712.824   65    2 114737.218 114681.276  0.05%  58.1  147s
  1517   994 114682.033   30    3 114737.218 114681.276  0.05%  55.4  153s
  1677  1098 114689.649   64    3 114737.218 114681.276  0.05%  53.5  161s
H 1762  1033                    114736.90575 114681.276  0.05%  52.3  161s
  1882  1208 114702.787   86    1 114736.906 114681.276  0.05%  51.2  169s
  2183   855     cutoff   68      114736.906 114681.644  0.05%  47.6  181s
  2458   504     cutoff   43      114736.906 114692.068  0.04%  53.4  192s
  2749   239     cutoff   64      114736.906 114704.378  0.03%  58.2  201s
  3014     0     cutoff   58      114736.906 114720.452  0.01%  59.9  206s

Cutting planes:
  Gomory: 3
  Implied bound: 69
  MIR: 94
  Mixing: 2
  Flow cover: 29
  Inf proof: 1
  Relax-and-lift: 19

Explored 3253 nodes (265643 simplex iterations) in 206.30 seconds (155.36 work units)
Thread count was 16 (of 16 available processors)

Solution count 10: 114737 114737 114738 ... 117241

Optimal solution found (tolerance 1.00e-04)
Best objective 1.147369057536e+05, best bound 1.147369057536e+05, gap 0.0000%
